22738.99 0
26 9 53 89 61 95 73 81 10 75 56 31 27 58 0 93 12 65 86 78 67 98 42 63 48 59 41 68 15 97 33 60 1 36 45 46 30 94 82 49 85 6 23 18 52 22 8 90 38 70 19 25 43 44 40 72 79 17 84 51 3 11 32 99 35 54 92 5 87 20 21 88 77 37 47 7 83 39 74 66 57 71 24 55 96 80 16 4 91 69 13 28 64 34 50 2 76 62 14 29